NAME : tsp_258_sol.txt
COMMENT : OR-Tools Guided Local Search
TYPE : TOUR
DIMENSION : 50
COST : 5820
STATUS : ROUTING_SUCCESS
GAP : 0.00% (Reference Solution)
TOUR_SECTION
1
42
19
7
38
46
14
27
13
12
45
4
17
20
3
32
2
26
23
16
28
15
49
24
18
50
21
40
43
8
25
48
30
37
44
39
11
41
31
5
33
29
47
34
35
9
6
36
10
22
-1
